RandInst10
10000
40
681 12
599 2
1088 26
1360 15
1114 4
2415 1
594 25
1028 12
515 27
1619 4
2078 24
1451 18
1913 29
842 1
1602 21
1699 21
2359 7
2312 3
637 19
1802 29
1913 3
2226 28
2296 27
623 26
1013 16
504 25
1272 21
2351 3
2445 23
1672 19
2099 30
2387 28
1282 23
1518 8
1541 2
2171 17
1592 27
1132 1
821 6
756 1
